222.0
221.4
222.0
221.4
222.0
221.6
222.0
221.6
221.8
222.0
221.0
221.4
221.6
221.6
221.8
221.6
221.0
221.8
221.6
222.4
221.6
222.6
221.2
221.4
221.4
222.2
221.8
221.8
221.8
222.2
221.4
222.4
222.0
221.4
220.8
221.8
221.6
222.2
222.0
221.6
222.2
221.4
221.2
221.8
222.2
221.8
221.4
221.8
221.0
222.0
